proyfinal/src/viki/013/experimentInOfficeAgust.take6.output/73b5a3eb-3000-43ff-82ac-b667140174e1.als.dat
{'cnf.clauses': '118081',
 'cnf.totvars': '69608',
 'conflict literals': '5',
 'conflicts': '5',
 'decisions': '4492',
 'memused.mb': '16.71',
 'outcome': 'UNSAT',
 'propagations': '27142',
 'restarts': '1',
 'solver.msecs': 35,
 'task.msecs': 81}
