proyfinal/src/viki/013/experimentInOfficeAgust.take6.output/73b5a3eb-3000-43ff-82ac-b667140174e1.als.out
Reading from standard input... Use '--help' for help.
============================[ Problem Statistics ]=============================
|                                                                             |
|  Number of variables:         69608                                         |
|  Number of clauses:          118081                                         |
|  Parse time:                   0.03 s                                       |
|                                                                             |
============================[ Search Statistics ]==============================
| Conflicts |          ORIGINAL         |          LEARNT          | Progress |
|           |    Vars  Clauses Literals |    Limit  Clauses Lit/Cl |          |
===============================================================================
===============================================================================
restarts              : 1
conflicts             : 5              (142 /sec)
decisions             : 4492           (0.00 % random) (127184 /sec)
propagations          : 27142          (768482 /sec)
conflict literals     : 5              (0.00 % deleted)
Memory used           : 16.71 MB
CPU time              : 0.035319 s

UNSATISFIABLE
